data/solutions/planning/wellformed/moderate/sequential/wellformed_moderate_instance93_cplex.sol
Elapsed time: 0.64
Nodes explored: -
Nodes left: -
Relative gap: -
Upper bound: 50210.0
Lower bound: -
C[0]=797.0
C[1]=797.0
C[2]=797.0
C[3]=797.0
C[4]=797.0
C[5]=796.0
y[0]=5
y[1]=1
y[2]=0
y[3]=2
y[4]=1
y[5]=1
y[6]=5
y[7]=1
y[8]=2
y[9]=3
y[10]=5
y[11]=0
y[12]=4
y[13]=4
y[14]=3
y[15]=4
y[16]=4
y[17]=4
y[18]=2
y[19]=2
y[20]=3
y[21]=1
y[22]=3
y[23]=5
y[24]=4
y[25]=2
y[26]=0
y[27]=4
y[28]=1
y[29]=3
y[30]=3
y[31]=1
y[32]=0
y[33]=1
y[34]=3
y[35]=5
y[36]=5
y[37]=4
y[38]=0
y[39]=4
y[40]=0
y[41]=1
y[42]=4
y[43]=2
y[44]=4
y[45]=1
y[46]=2
y[47]=5
y[48]=0
y[49]=5
