data/solutions/planning/wellformed/moderate/sequential/wellformed_moderate_instance93_cplex.log
Found incumbent of value 4781.000000 after 0.00 sec. (0.03 ticks)
Tried aggregator 2 times.
Aggregator did 2 substitutions.
Reduced MIP has 59 rows, 304 columns, and 612 nonzeros.
Reduced MIP has 300 binaries, 0 generals, 0 SOSs, and 0 indicators.
Presolve time = 0.00 sec. (0.64 ticks)
Probing fixed 0 vars, tightened 16 bounds.
Probing time = 0.00 sec. (0.94 ticks)
Tried aggregator 1 time.
Reduced MIP has 59 rows, 304 columns, and 612 nonzeros.
Reduced MIP has 300 binaries, 4 generals, 0 SOSs, and 0 indicators.
Presolve time = 0.00 sec. (0.43 ticks)
Probing time = 0.00 sec. (0.42 ticks)
Clique table members: 50.
MIP emphasis: balance optimality and feasibility.
MIP search method: dynamic search.
Parallel mode: none, using 1 thread.
Root relaxation solution time = 0.00 sec. (0.61 ticks)

        Nodes                                         Cuts/
   Node  Left     Objective  IInf  Best Integer    Best Bound    ItCnt     Gap

*     0+    0                         4781.0000        0.0000           100.00%
      0     0      796.8333    13     4781.0000      796.8333       67   83.33%
      0     0      797.0000     9     4781.0000      Cuts: 10       78   83.33%
*     0+    0                          886.0000      797.0000            10.05%
      0     0      797.0000    10      886.0000       Cuts: 6       88   10.05%
      0     0      797.0000    13      886.0000     Covers: 1       92   10.05%
      0     2      797.0000     9      886.0000      797.0000       92   10.05%
Elapsed time = 0.01 sec. (12.36 ticks, tree = 0.01 MB, solutions = 2)
*    30+   30                          861.0000      797.0000             7.43%
*   130+   95                          836.0000      797.0000             4.67%
*   130+   95                          833.0000      797.0000             4.32%
*   130+   93                          829.0000      797.0000             3.86%
*   130+   87                          803.0000      797.0000             0.75%
*   130+   87                          800.0000      797.0000             0.37%
*   574   319      integral     0      799.0000      797.0000     2054    0.25%
*   970+  423                          798.0000      797.0000             0.13%
   1442   574      797.0000     7      798.0000      797.0000     4466    0.13%
   1443   575      797.0000     8      798.0000      797.0000     4468    0.13%
   1444   574    infeasible            798.0000      797.0000     4468    0.13%
   1445   575      797.0000     8      798.0000      797.0000     4469    0.13%
   1446   576      797.0000     4      798.0000      797.0000     4470    0.13%
   1447   577      797.0000     4      798.0000      797.0000     4478    0.13%
   1448   578      797.0000     2      798.0000      797.0000     4479    0.13%
   1449   579      797.0000     2      798.0000      797.0000     4481    0.13%
   1450   578    infeasible            798.0000      797.0000     4481    0.13%
*  4210     0      integral     0      797.0000      797.0000     8737    0.00%

Zero-half cuts applied:  1
Gomory fractional cuts applied:  2

Root node processing (before b&c):
  Real time             =    0.01 sec. (12.37 ticks)
Sequential b&c:
  Real time             =    0.60 sec. (649.13 ticks)
                          ------------
Total (root+branch&cut) =    0.61 sec. (661.50 ticks)
2 of 11 MIP starts provided solutions.
MIP start 'm1' defined initial solution with objective 797.0000.
Tried aggregator 2 times.
MIP Presolve eliminated 1 rows and 0 columns.
Aggregator did 1 substitutions.
Reduced MIP has 60 rows, 305 columns, and 614 nonzeros.
Reduced MIP has 300 binaries, 0 generals, 0 SOSs, and 0 indicators.
Presolve time = 0.00 sec. (0.64 ticks)
Probing time = 0.00 sec. (0.37 ticks)
Cover probing fixed 0 vars, tightened 3 bounds.
Tried aggregator 1 time.
Reduced MIP has 60 rows, 305 columns, and 614 nonzeros.
Reduced MIP has 300 binaries, 5 generals, 0 SOSs, and 0 indicators.
Presolve time = 0.00 sec. (0.43 ticks)
Probing time = 0.00 sec. (0.33 ticks)
Clique table members: 50.
MIP emphasis: balance optimality and feasibility.
MIP search method: dynamic search.
Parallel mode: none, using 1 thread.
Root relaxation solution time = 0.00 sec. (0.66 ticks)

        Nodes                                         Cuts/
   Node  Left     Objective  IInf  Best Integer    Best Bound    ItCnt     Gap

*     0+    0                          797.0000        0.0000           100.00%
      0     0      796.8000    14      797.0000      796.8000       64    0.03%
      0     0        cutoff            797.0000      796.8000       64    0.03%
Elapsed time = 0.00 sec. (3.13 ticks, tree = 0.01 MB, solutions = 1)

Root node processing (before b&c):
  Real time             =    0.00 sec. (3.13 ticks)
Sequential b&c:
  Real time             =    0.00 sec. (0.00 ticks)
                          ------------
Total (root+branch&cut) =    0.00 sec. (3.13 ticks)
1 of 1 MIP starts provided solutions.
MIP start 'm1' defined initial solution with objective 797.0000.
Tried aggregator 2 times.
MIP Presolve eliminated 3 rows and 0 columns.
Aggregator did 1 substitutions.
Reduced MIP has 60 rows, 305 columns, and 614 nonzeros.
Reduced MIP has 300 binaries, 0 generals, 0 SOSs, and 0 indicators.
Presolve time = 0.00 sec. (0.64 ticks)
Probing time = 0.00 sec. (0.37 ticks)
Cover probing fixed 0 vars, tightened 3 bounds.
Tried aggregator 1 time.
Reduced MIP has 60 rows, 305 columns, and 614 nonzeros.
Reduced MIP has 300 binaries, 5 generals, 0 SOSs, and 0 indicators.
Presolve time = 0.00 sec. (0.43 ticks)
Probing time = 0.00 sec. (0.33 ticks)
Clique table members: 50.
MIP emphasis: balance optimality and feasibility.
MIP search method: dynamic search.
Parallel mode: none, using 1 thread.
Root relaxation solution time = 0.00 sec. (0.68 ticks)

        Nodes                                         Cuts/
   Node  Left     Objective  IInf  Best Integer    Best Bound    ItCnt     Gap

*     0+    0                          797.0000        0.0000           100.00%
      0     0      796.7500    13      797.0000      796.7500       72    0.03%
      0     0        cutoff            797.0000      796.7500       72    0.03%
Elapsed time = 0.00 sec. (3.10 ticks, tree = 0.01 MB, solutions = 1)

Root node processing (before b&c):
  Real time             =    0.00 sec. (3.11 ticks)
Sequential b&c:
  Real time             =    0.00 sec. (0.00 ticks)
                          ------------
Total (root+branch&cut) =    0.00 sec. (3.11 ticks)
1 of 1 MIP starts provided solutions.
MIP start 'm1' defined initial solution with objective 797.0000.
Tried aggregator 2 times.
MIP Presolve eliminated 6 rows and 0 columns.
Aggregator did 1 substitutions.
Reduced MIP has 60 rows, 305 columns, and 614 nonzeros.
Reduced MIP has 300 binaries, 0 generals, 0 SOSs, and 0 indicators.
Presolve time = 0.00 sec. (0.64 ticks)
Probing time = 0.00 sec. (0.37 ticks)
Cover probing fixed 0 vars, tightened 3 bounds.
Tried aggregator 1 time.
Reduced MIP has 60 rows, 305 columns, and 614 nonzeros.
Reduced MIP has 300 binaries, 5 generals, 0 SOSs, and 0 indicators.
Presolve time = 0.00 sec. (0.43 ticks)
Probing time = 0.00 sec. (0.33 ticks)
Clique table members: 50.
MIP emphasis: balance optimality and feasibility.
MIP search method: dynamic search.
Parallel mode: none, using 1 thread.
Root relaxation solution time = 0.00 sec. (0.65 ticks)

        Nodes                                         Cuts/
   Node  Left     Objective  IInf  Best Integer    Best Bound    ItCnt     Gap

*     0+    0                          797.0000        0.0000           100.00%
      0     0      796.6667    12      797.0000      796.6667       71    0.04%
      0     0        cutoff            797.0000      796.6667       71    0.04%
Elapsed time = 0.00 sec. (3.07 ticks, tree = 0.01 MB, solutions = 1)

Root node processing (before b&c):
  Real time             =    0.00 sec. (3.08 ticks)
Sequential b&c:
  Real time             =    0.00 sec. (0.00 ticks)
                          ------------
Total (root+branch&cut) =    0.00 sec. (3.08 ticks)
1 of 1 MIP starts provided solutions.
MIP start 'm1' defined initial solution with objective 797.0000.
Tried aggregator 2 times.
MIP Presolve eliminated 10 rows and 0 columns.
Aggregator did 1 substitutions.
Reduced MIP has 60 rows, 305 columns, and 614 nonzeros.
Reduced MIP has 300 binaries, 0 generals, 0 SOSs, and 0 indicators.
Presolve time = 0.00 sec. (0.64 ticks)
Probing time = 0.00 sec. (0.37 ticks)
Cover probing fixed 0 vars, tightened 3 bounds.
Tried aggregator 1 time.
Reduced MIP has 60 rows, 305 columns, and 614 nonzeros.
Reduced MIP has 300 binaries, 5 generals, 0 SOSs, and 0 indicators.
Presolve time = 0.00 sec. (0.43 ticks)
Probing time = 0.00 sec. (0.33 ticks)
Clique table members: 50.
MIP emphasis: balance optimality and feasibility.
MIP search method: dynamic search.
Parallel mode: none, using 1 thread.
Root relaxation solution time = 0.00 sec. (0.64 ticks)

        Nodes                                         Cuts/
   Node  Left     Objective  IInf  Best Integer    Best Bound    ItCnt     Gap

*     0+    0                          797.0000        0.0000           100.00%
      0     0      796.5000    11      797.0000      796.5000       71    0.06%
      0     0        cutoff            797.0000      796.5000       71    0.06%
Elapsed time = 0.00 sec. (3.06 ticks, tree = 0.01 MB, solutions = 1)

Root node processing (before b&c):
  Real time             =    0.00 sec. (3.07 ticks)
Sequential b&c:
  Real time             =    0.00 sec. (0.00 ticks)
                          ------------
Total (root+branch&cut) =    0.00 sec. (3.07 ticks)
1 of 1 MIP starts provided solutions.
MIP start 'm1' defined initial solution with objective 796.0000.
Tried aggregator 2 times.
MIP Presolve eliminated 15 rows and 0 columns.
Aggregator did 1 substitutions.
Reduced MIP has 60 rows, 305 columns, and 614 nonzeros.
Reduced MIP has 300 binaries, 0 generals, 0 SOSs, and 0 indicators.
Presolve time = 0.00 sec. (0.64 ticks)
Probing time = 0.00 sec. (0.37 ticks)
Cover probing fixed 0 vars, tightened 3 bounds.
Tried aggregator 1 time.
Reduced MIP has 60 rows, 305 columns, and 614 nonzeros.
Reduced MIP has 300 binaries, 5 generals, 0 SOSs, and 0 indicators.
Presolve time = 0.00 sec. (0.43 ticks)
Probing time = 0.00 sec. (0.33 ticks)
Clique table members: 50.
MIP emphasis: balance optimality and feasibility.
MIP search method: dynamic search.
Parallel mode: none, using 1 thread.
Root relaxation solution time = 0.00 sec. (0.24 ticks)

        Nodes                                         Cuts/
   Node  Left     Objective  IInf  Best Integer    Best Bound    ItCnt     Gap

*     0+    0                          796.0000        0.0000           100.00%
      0     0        cutoff            796.0000                     15    0.00%

Root node processing (before b&c):
  Real time             =    0.00 sec. (2.64 ticks)
Sequential b&c:
  Real time             =    0.00 sec. (0.00 ticks)
                          ------------
Total (root+branch&cut) =    0.00 sec. (2.64 ticks)
